NAME : sample_55
COMMENT : Sample TSP instance with 55 cities
TYPE : TSP
DIMENSION : 55
EDGE_WEIGHT_TYPE : EUC_2D
NODE_COORD_SECTION
1 26 394
2 151 14
3 904 993
4 16 979
5 559 7
6 935 647
7 441 233
8 938 18
9 493 820
10 395 66
11 984 825
12 160 158
13 48 331
14 33 508
15 345 593
16 450 694
17 118 274
18 441 209
19 725 499
20 272 512
21 201 241
22 312 290
23 468 917
24 119 250
25 683 372
26 153 820
27 16 137
28 623 875
29 704 943
30 323 298
31 921 70
32 362 271
33 184 861
34 857 954
35 669 230
36 773 538
37 494 134
38 117 405
39 869 668
40 269 605
41 327 975
42 363 920
43 368 828
44 929 679
45 791 502
46 385 691
47 896 695
48 825 91
49 707 103
50 12 202
51 711 517
52 596 504
53 218 600
54 61 411
55 172 499
EOF
